1659348000
1659356940
1659434580
1659451320
1659524700
1659538260
1659607260
1659622320
1659693480
1659708180
1659952980
1659973560
1660125600
1660143060
1660212120
1660226400
1660298520
1660304520
1660557660
1660572960
1660644120
1660658580
1660729860
1660745100
1660816800
1660832340
1660903260
1660919400
1661162400
1661178000
1661248800
1661262840
1661335620
1661421660
1661350200
1661508300
1661436600
1661518440
1661767080
1661783100
1661853420
1661860860
1661940000
1661954400
